40
60.0 101.0 
55.0 84.0 
60.0 101.0 
55.0 84.0 
60.0 101.0 
55.0 84.0 
60.0 101.0 
55.0 84.0 
60.0 101.0 
55.0 84.0 
60.0 101.0 
55.0 84.0 
60.0 101.0 
55.0 84.0 
60.0 101.0 
55.0 84.0 
60.0 101.0 
55.0 84.0 
60.0 101.0 
55.0 84.0 
60.0 101.0 
55.0 84.0 
60.0 101.0 
55.0 84.0 
60.0 101.0 
55.0 84.0 
60.0 101.0 
55.0 84.0 
60.0 101.0 
55.0 84.0 
60.0 101.0 
55.0 84.0 
60.0 101.0 
55.0 84.0 
60.0 101.0 
55.0 84.0 
60.0 101.0 
55.0 84.0 
60.0 101.0 
55.0 84.0 

0 18 19 20 11 10 9 8 7 31 
0 18 19 26 30 25 7 8 31 
0 18 19 20 11 10 9 8 7 31 
0 18 19 26 30 25 7 8 31 
0 18 19 20 11 10 9 8 7 31 
0 18 19 26 30 25 7 8 31 
0 18 19 20 11 10 9 8 7 31 
0 18 19 26 30 25 7 8 31 
0 18 19 20 11 10 9 8 7 31 
0 18 19 26 30 25 7 8 31 
0 18 19 20 11 10 9 8 7 31 
0 18 19 26 30 25 7 8 31 
0 18 19 20 11 10 9 8 7 31 
0 18 19 26 30 25 7 8 31 
0 18 19 20 11 10 9 8 7 31 
0 18 19 26 30 25 7 8 31 
0 18 19 20 11 10 9 8 7 31 
0 18 19 26 30 25 7 8 31 
0 18 19 20 11 10 9 8 7 31 
0 18 19 26 30 25 7 8 31 
0 18 19 20 11 10 9 8 7 31 
0 18 19 26 30 25 7 8 31 
0 18 19 20 11 10 9 8 7 31 
0 18 19 26 30 25 7 8 31 
0 18 19 20 11 10 9 8 7 31 
0 18 19 26 30 25 7 8 31 
0 18 19 20 11 10 9 8 7 31 
0 18 19 26 30 25 7 8 31 
0 18 19 20 11 10 9 8 7 31 
0 18 19 26 30 25 7 8 31 
0 18 19 20 11 10 9 8 7 31 
0 18 19 26 30 25 7 8 31 
0 18 19 20 11 10 9 8 7 31 
0 18 19 26 30 25 7 8 31 
0 18 19 20 11 10 9 8 7 31 
0 18 19 26 30 25 7 8 31 
0 18 19 20 11 10 9 8 7 31 
0 18 19 26 30 25 7 8 31 
0 18 19 20 11 10 9 8 7 31 
0 18 19 26 30 25 7 8 31 
